<instance format="XCSP3" type="CSP">
  <variables>
    <var id="x0"> 0 2 17 </var>
    <var id="x1"> 5 7 11 14 </var>
    <var id="x2"> 0 5 7 11 15 </var>
    <var id="x3"> 5 11 15 17 </var>
    <var id="x4"> 2 7 </var>
    <var id="x5"> 7 11 15 </var>
    <var id="x6"> 0 2 5 14 </var>
    <var id="x7"> 0 5 14 15 </var>
    <var id="x8"> 5 6 13 17 </var>
    <var id="x9"> 2 6 13 16 </var>
    <var id="x10"> 5 11 13 17 </var>
    <var id="x11"> 6 8 11 </var>
    <var id="x12"> 5 16 </var>
    <var id="x13"> 2 5 6 17 </var>
    <var id="x14"> 5 8 11 16 17 </var>
    <var id="x15"> 6 11 </var>
    <var id="x16"> 0 4 6 10 </var>
    <var id="x17"> 4 7 10 14 </var>
    <var id="x18"> 0 7 9 10 </var>
    <var id="x19"> 6 7 9 10 </var>
    <var id="x20"> 6 7 9 </var>
    <var id="x21"> 6 14 </var>
    <var id="x22"> 0 6 9 10 14 </var>
    <var id="x23"> 5 9 12 13 17 </var>
    <var id="x24"> 2 5 9 11 </var>
    <var id="x25"> 5 10 11 13 </var>
    <var id="x26"> 5 11 12 17 </var>
    <var id="x27"> 9..11 </var>
    <var id="x28"> 2 5 11 17 </var>
    <var id="x29"> 2 5 13 </var>
    <var id="x30"> 5 9 10 </var>
    <var id="x31"> 6 8 10 11 13 </var>
    <var id="x32"> 2 11 14 </var>
    <var id="x33"> 2 4 6 8 11 </var>
    <var id="x34"> 2 6 10 13 14 </var>
    <var id="x35"> 4 10 11 13 14 </var>
    <var id="x36"> 10 11 13 </var>
    <var id="x37"> 2 6 13 </var>
    <var id="x38"> 6 8 10 14 </var>
    <var id="x39"> 6..9 11 13 </var>
    <var id="x40"> 6 8 9 11 </var>
    <var id="x41"> 6 17 </var>
    <var id="x42"> 7 11 13 </var>
    <var id="x43"> 7 9 12 </var>
    <var id="x44"> 6 9 12 17 </var>
    <var id="x45"> 7 8 11 12 17 </var>
    <var id="x46"> 6 8 9 </var>
    <var id="x47"> 6..8 10 </var>
    <var id="x48"> 1 5 6 12 </var>
    <var id="x49"> 2 5 12 </var>
    <var id="x50"> 2 5 6 8 </var>
    <var id="x51"> 2 6 7 10 </var>
    <var id="x52"> 5 7 10 </var>
    <var id="x53"> 1 6 7 10 </var>
    <var id="x54"> 5 6 8 10 </var>
    <var id="x55"> 1 5 6 9 </var>
    <var id="x56"> 6 7 16 </var>
    <var id="x57"> 5 7 9 11 </var>
    <var id="x58"> 6 7 9 11 </var>
    <var id="x59"> 5 7 9 16 </var>
    <var id="x60"> 1 5 6 9 </var>
    <var id="x61"> 1 4 6 7 9 11 </var>
    <var id="x62"> 5 6 16 </var>
    <var id="x63"> 0 10 </var>
    <var id="x64"> 0 9 10 15 </var>
    <var id="x65"> 1 10 15 </var>
    <var id="x66"> 8..10 15 </var>
    <var id="x67"> 0 9 12 15 </var>
    <var id="x68"> 1 9 12 </var>
    <var id="x69"> 1 8 </var>
    <var id="x70"> 1 5 6 9 12 17 </var>
    <var id="x71"> 2 5 12 17 </var>
    <var id="x72"> 2 6 7 </var>
    <var id="x73"> 1 5 17 </var>
    <var id="x74"> 6 7 9 </var>
    <var id="x75"> 2 6 7 9 </var>
    <var id="x76"> 1 6 7 9 </var>
    <var id="x77"> 5 6 9 </var>
    <var id="x78"> 6 10 15 </var>
    <var id="x79"> 5 16 </var>
    <var id="x80"> 3 6 10 16 </var>
    <var id="x81"> 3 5 10 </var>
    <var id="x82"> 1 3 5 10 15 </var>
    <var id="x83"> 1 3 5 6 </var>
    <var id="x84"> 5 6 16 </var>
    <var id="x85"> 2 11 14 16 </var>
    <var id="x86"> 2 6 10 16 </var>
    <var id="x87"> 6 10 11 15 </var>
    <var id="x88"> 2 6 16 </var>
    <var id="x89"> 1 11 16 </var>
    <var id="x90"> 1 2 6 11 14 </var>
    <var id="x91"> 2 6 14 16 </var>
    <var id="x92"> 6 10 14 15 </var>
    <var id="x93"> 6 9 13 15 </var>
    <var id="x94"> 14 16 17 </var>
    <var id="x95"> 6 13..16 </var>
    <var id="x96"> 3 6 16 17 </var>
    <var id="x97"> 9 13 15 </var>
    <var id="x98"> 3 13 15 17 </var>
    <var id="x99"> 9 14..16 </var>
    <var id="x100"> 16 17 </var>
    <var id="x101"> 7 8 11 15 </var>
    <var id="x102"> 0 5 11 16 </var>
    <var id="x103"> 3 5 8 11 </var>
    <var id="x104"> 7 15 16 </var>
    <var as="x2" id="x105"/>
    <var id="x106"> 5 7 8 11 16 </var>
    <var id="x107"> 5 8 11 </var>
    <var id="x108"> 0 5 16 </var>
    <var id="x109"> 5 6 9 13 14 </var>
    <var id="x110"> 5 6 9 11 </var>
    <var id="x111"> 5 11 13 14 </var>
    <var id="x112"> 0 5 9 11 13 </var>
    <var id="x113"> 0 5 9 14 16 </var>
    <var id="x114"> 6 9 11 </var>
    <var id="x115"> 5 6 11 14 </var>
    <var id="x116"> 0 5 6 13 14 16 </var>
    <var id="x117"> 6 9 11 13 15 </var>
    <var id="x118"> 5 6 9 13 </var>
    <var id="x119"> 3..6 9 11 </var>
    <var id="x120"> 3 4 6 </var>
    <var id="x121"> 6 9 11 15 </var>
    <var id="x122"> 5 9 15 </var>
    <var id="x123"> 3 5 6 9 </var>
    <var id="x124"> 5 6 11 </var>
    <var id="x125"> 7 10 13 </var>
    <var id="x126"> 2 7 10 13 14 </var>
    <var id="x127"> 3 5 7 10 13 14 </var>
    <var id="x128"> 5 7 14 </var>
    <var id="x129"> 2 3 5 17 </var>
    <var id="x130"> 2 3 7 13 </var>
    <var id="x131"> 5 7 17 </var>
    <var id="x132"> 2 5 14 17 </var>
    <var id="x133"> 5 9 14 </var>
    <var id="x134"> 0 5 14 </var>
    <var id="x135"> 3 5 9 </var>
    <var id="x136"> 3 5 10 15 </var>
    <var id="x137"> 3 5 9 </var>
    <var id="x138"> 3 7 9 </var>
    <var id="x139"> 5 7 </var>
    <var id="x140"> 7 9 10 15 </var>
  </variables>
  <constraints>
    <group>
      <allDifferent> %... </allDifferent>
      <args> x0 x1 x2 x3 x4 x5 x6 x7 </args>
      <args> x8 x9 x10 x11 x12 x13 x14 x15 </args>
      <args> x16 x17 x18 x19 x20 x21 x22 </args>
      <args> x23 x24 x25 x26 x27 x28 x29 x30 </args>
      <args> x31 x32 x33 x34 x35 x36 x37 x38 </args>
      <args> x39 x40 x41 x42 x43 x44 x45 x46 </args>
      <args> x47 x48 x49 x50 x51 x52 x53 x54 </args>
      <args> x55 x56 x57 x58 x59 x60 x61 x62 </args>
      <args> x63 x64 x65 x66 x67 x68 x69 </args>
      <args> x70 x71 x72 x73 x74 x75 x76 x77 </args>
      <args> x78 x79 x80 x81 x82 x83 x84 </args>
      <args> x85 x86 x87 x88 x89 x90 x91 x92 </args>
      <args> x93 x94 x95 x96 x97 x98 x99 x100 </args>
      <args> x101 x102 x103 x104 x105 x106 x107 x108 </args>
      <args> x109 x110 x111 x112 x113 x114 x115 x116 </args>
      <args> x117 x118 x119 x120 x121 x122 x123 x124 </args>
      <args> x125 x126 x127 x128 x129 x130 x131 x132 </args>
      <args> x133 x134 x135 x136 x137 x138 x139 x140 </args>
      <args> x31 x39 x47 x78 x93 x101 x117 x125 </args>
      <args> x8 x23 x48 x55 x70 x109 x118 x133 </args>
      <args> x32 x49 x71 x79 x85 x94 x102 x134 </args>
      <args> x24 x33 x40 x50 x103 x110 x119 x135 </args>
      <args> x9 x34 x51 x56 x72 x95 x104 x126 </args>
      <args> x0 x16 x41 x63 x80 x86 x96 x120 </args>
      <args> x1 x17 x25 x35 x42 x81 x111 x127 </args>
      <args> x2 x18 x52 x57 x64 x97 x105 x112 </args>
      <args> x3 x10 x36 x65 x73 x82 x98 x136 </args>
      <args> x11 x19 x58 x66 x74 x87 x121 </args>
      <args> x12 x43 x59 x67 x99 x113 x122 x128 </args>
      <args> x13 x44 x60 x68 x83 x123 x129 x137 </args>
      <args> x4 x20 x37 x75 x88 x130 x138 </args>
      <args> x14 x26 x45 x89 x100 x106 x131 x139 </args>
      <args> x5 x15 x27 x53 x61 x76 x114 x140 </args>
      <args> x21 x28 x69 x90 x107 x115 x124 x132 </args>
      <args> x6 x29 x62 x84 x91 x108 x116 </args>
      <args> x7 x22 x30 x38 x46 x54 x77 x92 </args>
    </group>
  </constraints>
</instance>

